Route 1: 2 21 73 41 55 25

Route 2: 36 47 94 96 91 100

Route 3: 87 57

Route 4: 12 76 79 34 35 77

Route 5: 11 49 48

Route 6: 14 99 85 17

Route 7: 92 42 15 40 24

Route 8: 45 82 19 10 1 58

Route 9: 83 61 84 97 89

Route 10: 62 88 6 74

Route 11: 27 52 7 8 46

Route 12: 39 23 67 68 80

Route 13: 59 95 53 43

Route 14: 33 30 51 66

Route 15: 98 16 86 37

Route 16: 5 44 38 13

Route 17: 31 18 60

Route 18: 28 75 22 26 4

Route 19: 29 78 50 93

Route 20: 72 56

Route 21: 65 71 9 3 54

Route 22: 63 64 90 20

Route 23: 69 81 32 70

Vehicles: 23

Distance: 2207.84

